(set-logic ALL)
(declare-fun i1 () Int)
(declare-fun it178 () Int)
(declare-fun it179 () Int)
(declare-fun i2 () Int)
(declare-fun i3 () Int)
(declare-fun it180 () Int)
(declare-fun i4 () Int)
(declare-fun it181 () Int)
(declare-fun i5 () Int)
(declare-fun it182 () Int)
(declare-fun i6 () Int)
(declare-fun it183 () Int)
(declare-fun i7 () Int)
(declare-fun it184 () Int)
(declare-fun it415 () Int)
(declare-fun it416 () Int)
(declare-fun it417 () Int)
(declare-fun it418 () Int)
(declare-fun it419 () Int)
(declare-fun it420 () Int)
(declare-fun it421 () Int)
(declare-fun it498 () Int)
(declare-fun it499 () Int)
(declare-fun it500 () Int)
(declare-fun it501 () Int)
(declare-fun it502 () Int)
(declare-fun it503 () Int)
(declare-fun it504 () Int)
(declare-fun it453 () Int)
(assert (= (+ i1 (- 1)) 0))
(assert (= (+ it178 (- 2)) 0))
(assert (= (+ (* i2 (- 1)) it179 (- 1)) 0))
(assert (= (+ it180 (* i3 (- 1))) 0))
(assert (= (+ it181 (* i4 (- 1))) 0))
(assert (= (+ it182 (* i5 (- 1))) 0))
(assert (= (+ it183 (* i6 (- 1))) 0))
(assert (= (+ it184 (* i7 (- 1))) 0))
(assert (and (<= (+ it183 (- 5)) 0)
     (> it180 0)
     (<= (+ (* it183 (- 1)) (- 5)) 0)
     (= (+ it178 (- 2)) 0)))
(assert (= (+ it415 (- 3)) 0))
(assert (= (+ it416 (* it179 (- 1)) (- 2)) 0))
(assert (= (+ it417 (* it180 (- 1))) 0))
(assert (= (+ (* it180 (- 1)) it418) 0))
(assert (= (+ (* it184 (- 1)) it419) 0))
(assert (= (+ it420 (* it183 (- 1))) 0))
(assert (= (+ it421 (* it184 (- 1))) 0))
(assert (let ((a!1 (< (+ (exp it418 2) (exp it420 5) (+ 0 (* it419 (- 1)))) (+ 0 0))))
  (and a!1 (= (+ it415 (- 3)) 0) (> it418 0))))
(assert (= (+ it498 (- 3)) 0))
(assert (= (+ it499 (* it416 (- 1)) (- 1)) 0))
(assert (= (+ (* it417 (- 1)) it500) 0))
(assert (= (+ (* it418 2) it501) 0))
(assert (let ((a!1 (+ (+ 0 (+ it502 (* it419 (- 3)))) (* (exp it420 3) (+ 0 2)))))
  (= a!1 (+ 0 0))))
(assert (= (+ (* it420 (- 1)) it503) 0))
(assert (= (+ (* it421 (- 1)) it504) 0))
(assert (let ((a!1 (> (+ (+ 0 (* it502 3))
                 (* (exp it503 3) (+ 0 (- 2)))
                 (* (exp it501 2) (+ 0 (- 4)))
                 (* (exp it503 5) (+ 0 (- 1))))
              (+ 0 0)))
      (a!2 (* (* (exp 81 (+ it453 (- 1))) (exp it503 3)) (+ 0 (- 9))))
      (a!3 (* (exp (exp 16 (+ it453 (- 1))) (+ 0 2)) (exp it501 2)))
      (a!4 (* (* (+ 0 it502) (exp 81 (+ it453 (- 1)))) (+ 0 9)))
      (a!6 (* (* (exp 81 (+ it453 (- 1))) (exp it503 3)) (+ 0 (- 27))))
      (a!7 (* (* (+ 0 it502) (exp 81 (+ it453 (- 1)))) (+ 0 27)))
      (a!9 (* (* (exp 81 (+ it453 (- 1))) (exp it503 3)) (+ 0 (- 3))))
      (a!10 (* (* (+ 0 it502) (exp 81 (+ it453 (- 1)))) (+ 0 3)))
      (a!12 (* (* (exp 81 (+ it453 (- 1))) (exp it503 3)) (+ 0 (- 1))))
      (a!14 (> (+ (+ 0 it502)
                  (* (exp it501 2) (+ 0 (- 1)))
                  (* (exp it503 5) (+ 0 (- 1))))
               (+ 0 0)))
      (a!15 (> (+ (+ 0 (* it502 9))
                  (* (exp it503 3) (+ 0 (- 8)))
                  (* (exp it501 2) (+ 0 (- 16)))
                  (* (exp it503 5) (+ 0 (- 1))))
               (+ 0 0))))
(let ((a!5 (> (+ a!2
                 (exp it503 3)
                 (* a!3 (+ 0 (- 16)))
                 a!4
                 (* (exp it503 5) (+ 0 (- 1))))
              (+ 0 0)))
      (a!8 (> (+ a!6
                 (exp it503 3)
                 (* a!3 (+ 0 (- 64)))
                 a!7
                 (* (exp it503 5) (+ 0 (- 1))))
              (+ 0 0)))
      (a!11 (> (+ a!9
                  (exp it503 3)
                  (* a!3 (+ 0 (- 4)))
                  a!10
                  (* (exp it503 5) (+ 0 (- 1))))
               (+ 0 0)))
      (a!13 (+ a!12
               (exp it503 3)
               (* a!3 (+ 0 (- 1)))
               (* (+ 0 it502) (exp 81 (+ it453 (- 1))))
               (* (exp it503 5) (+ 0 (- 1))))))
  (and (>= (+ it498 (- 3)) 0)
       (> (* it501 2) 0)
       a!1
       a!5
       a!8
       a!11
       (> (* it501 8) 0)
       (> a!13 (+ 0 0))
       (>= (+ (* it498 (- 1)) 3) 0)
       (> (* it501 4) 0)
       (>= (+ it453 (- 1)) 0)
       (> it501 0)
       a!14
       a!15))))
(check-sat)
